; benchmark generated from python API
(set-info :status unknown)
(declare-fun s () Int)
(define-funs-rec ( ( T2_13 ((x!1 Int)) Int)
                   ( gould2_13 ((x!1 Int)) Int)
                   ( partial_sum2_13 ((x!1 Int) (x!2 Int)) Int)
                   ( binomial_coeff2_13 ((x!1 Int) (x!2 Int)) Int)
                   ( T2_01 ((x!1 Int)) Int)
                   ( p2_01 ((x!1 Int)) Int))
                 ( (mod (- ((_ gould2_13 0) x!1) 1) 3)
                   (let ((a!1 (+ (* ((_ partial_sum2_13 0) x!1 0) 2)
                                 (mod ((_ binomial_coeff2_13 0) x!1 (div x!1 2))
                                      2))))
                     (ite (= (mod x!1 2) 0)
                          a!1
                          (* ((_ partial_sum2_13 0) x!1 0) 2)))
                   (let ((a!1 (ite (= (mod ((_ binomial_coeff2_13 0) x!1 x!2) 2)
                                      1)
                                   (+ 1 ((_ partial_sum2_13 0) x!1 (+ x!2 1)))
                                   ((_ partial_sum2_13 0) x!1 (+ x!2 1)))))
                     (ite (> x!2 (div (+ x!1 1) 2)) 0 a!1))
                   (let ((a!1 (div (* ((_ binomial_coeff2_13 0) x!1 (- x!2 1))
                                      (- x!1 (- x!2 1)))
                                   x!2)))
                     (ite (= x!2 0) 1 a!1))
                   (mod ((_ p2_01 0) x!1) 2)
                   (ite (= x!1 0) 0 (+ ((_ p2_01 0) (div x!1 2)) x!1))))
(assert
 (forall ((n Int) )(let ((?x413 ((_ T2_13 0) n)))
 (let (($x380 (= ?x413 n)))
 (let ((?x410 ((_ T2_01 0) n)))
 (let (($x425 (= ?x410 n)))
 (let (($x424 (and $x425 $x380)))
 (let (($x387 (< n s)))
 (let (($x430 (>= n 0)))
 (let (($x358 (and $x430 $x387)))
 (=> $x358 $x424))))))))))
 )
(assert
 (let ((?x381 ((_ T2_01 0) s)))
 (= ?x381 1)))
(assert
 (let ((?x382 ((_ T2_13 0) s)))
 (= ?x382 1)))
(assert
 (forall ((n Int) )(let ((?x413 ((_ T2_13 0) n)))
(let ((?x410 ((_ T2_01 0) n)))
(let (($x492 (= ?x410 ?x413)))
(let (($x430 (>= n 0)))
(=> $x430 $x492))))))
)
(check-sat)
